decision_x1=[0,2];
decision_x2=[0,2];
decision_x3=[0,2];
decision_x4=[0,2];
decision_x5=[0,2];
decision_x6=[0,2];
decision_x7=[0,2];
decision_x8=[0,2];
decision_x9=[0,2];
decision_x10=[0,2];
decision_x11=[0,2];
decision_x12=[0,2];
random_y1=[0,2];
random_y2=[0,2];
random_y3=[0,2];
constraint_x3_x1=[
0,0,9.1|
0,1,7.6|
0,2,9.2|
1,0,6.3|
1,1,8.8|
1,2,6.9|
2,0,2.3|
2,1,5.9|
2,2,6.4|
];
constraint_x3_x2=[
0,0,7.4|
0,1,1.2|
0,2,7.3|
1,0,8.1|
1,1,5.1|
1,2,8.3|
2,0,5.4|
2,1,8.8|
2,2,6.4|
];
constraint_x4_x3=[
0,0,0.12|
0,1,3.1|
0,2,5.7|
1,0,7.7|
1,1,0.14|
1,2,6.2|
2,0,8.8|
2,1,0.2|
2,2,1.2|
];
constraint_x5_x1=[
0,0,4.7|
0,1,5.5|
0,2,0.088|
1,0,1.6|
1,1,2.7|
1,2,5.3|
2,0,1.7|
2,1,2.3|
2,2,8.7|
];
constraint_x5_x2=[
0,0,7.3|
0,1,7.7|
0,2,5.1|
1,0,7.7|
1,1,0.001|
1,2,1.6|
2,0,8.2|
2,1,3.5|
2,2,1.4|
];
constraint_x5_x3=[
0,0,0.17|
0,1,5|
0,2,9.7|
1,0,5.9|
1,1,2.5|
1,2,5.2|
2,0,6.5|
2,1,8.8|
2,2,4.6|
];
constraint_x6_x2=[
0,0,0.55|
0,1,7.6|
0,2,8.4|
1,0,1.5|
1,1,0.53|
1,2,0.33|
2,0,8.5|
2,1,4.1|
2,2,2.7|
];
constraint_x6_x3=[
0,0,1.7|
0,1,9.2|
0,2,1.9|
1,0,3.5|
1,1,2.7|
1,2,5.6|
2,0,8.7|
2,1,0.87|
2,2,6.4|
];
constraint_x6_x4=[
0,0,8|
0,1,3.8|
0,2,3.3|
1,0,3.5|
1,1,1.1|
1,2,6.1|
2,0,6.5|
2,1,3.4|
2,2,9.1|
];
constraint_x6_x5=[
0,0,8.2|
0,1,9.9|
0,2,1.1|
1,0,2.4|
1,1,8.5|
1,2,5.3|
2,0,4|
2,1,5.9|
2,2,8.3|
];
constraint_x7_x3=[
0,0,5.9|
0,1,0.53|
0,2,7.8|
1,0,9.9|
1,1,1.9|
1,2,5.5|
2,0,3.6|
2,1,7.7|
2,2,6.6|
];
constraint_x7_x4=[
0,0,7.6|
0,1,5.7|
0,2,0.57|
1,0,4.7|
1,1,1.1|
1,2,6.3|
2,0,1.9|
2,1,9.6|
2,2,7.1|
];
constraint_x8_x2=[
0,0,3.1|
0,1,2.8|
0,2,8.6|
1,0,2.6|
1,1,9.5|
1,2,4.6|
2,0,4|
2,1,7.6|
2,2,2|
];
constraint_x8_x6=[
0,0,4|
0,1,9.4|
0,2,5.4|
1,0,4.4|
1,1,9.3|
1,2,5|
2,0,2.4|
2,1,5.8|
2,2,8.3|
];
constraint_x8_x7=[
0,0,0.49|
0,1,7.8|
0,2,8.8|
1,0,4.5|
1,1,6.8|
1,2,0.5|
2,0,3.3|
2,1,1.1|
2,2,3.3|
];
constraint_x9_x2=[
0,0,5.5|
0,1,0.5|
0,2,9.7|
1,0,5.7|
1,1,2.2|
1,2,4.1|
2,0,7.2|
2,1,9.8|
2,2,9.3|
];
constraint_x9_x3=[
0,0,7.4|
0,1,5.7|
0,2,2.2|
1,0,9.6|
1,1,4.2|
1,2,7.9|
2,0,6.7|
2,1,4.6|
2,2,10|
];
constraint_x9_x5=[
0,0,9.2|
0,1,1.3|
0,2,5.2|
1,0,5.5|
1,1,4.8|
1,2,1.9|
2,0,4.3|
2,1,0.51|
2,2,2|
];
constraint_x9_x6=[
0,0,6.4|
0,1,9|
0,2,7.5|
1,0,0.95|
1,1,5.2|
1,2,4.8|
2,0,4.9|
2,1,6|
2,2,6.6|
];
constraint_x9_x8=[
0,0,5.2|
0,1,2.9|
0,2,0.95|
1,0,6.7|
1,1,0.8|
1,2,5.3|
2,0,3.2|
2,1,2.1|
2,2,4.3|
];
constraint_x10_x1=[
0,0,9.4|
0,1,5.8|
0,2,9.1|
1,0,5.7|
1,1,4.5|
1,2,1.5|
2,0,8.4|
2,1,1|
2,2,7.7|
];
constraint_x10_x4=[
0,0,4.8|
0,1,0.87|
0,2,4.4|
1,0,0.62|
1,1,2.9|
1,2,7.1|
2,0,5.2|
2,1,5.8|
2,2,6.2|
];
constraint_x10_x5=[
0,0,4.8|
0,1,8|
0,2,1.1|
1,0,2.3|
1,1,5.1|
1,2,6.7|
2,0,3.2|
2,1,6.3|
2,2,0.79|
];
constraint_x10_x6=[
0,0,0.13|
0,1,6|
0,2,6.1|
1,0,0.82|
1,1,7.6|
1,2,5.7|
2,0,2.2|
2,1,7.3|
2,2,0.53|
];
constraint_x11_x1=[
0,0,5.8|
0,1,1.4|
0,2,5.3|
1,0,5.3|
1,1,3.2|
1,2,7.9|
2,0,0.51|
2,1,0.65|
2,2,0.35|
];
constraint_x11_x3=[
0,0,7.9|
0,1,9|
0,2,0.0056|
1,0,7.4|
1,1,3.4|
1,2,1.5|
2,0,7|
2,1,9.1|
2,2,7|
];
constraint_x11_x4=[
0,0,1.8|
0,1,6.1|
0,2,5.5|
1,0,0.16|
1,1,8.5|
1,2,3.1|
2,0,5.2|
2,1,0.012|
2,2,0.35|
];
constraint_x11_x6=[
0,0,6.8|
0,1,0.083|
0,2,3.7|
1,0,4|
1,1,0.62|
1,2,2.8|
2,0,7.6|
2,1,7.7|
2,2,8.3|
];
constraint_x11_x7=[
0,0,4.1|
0,1,9.7|
0,2,7.6|
1,0,9|
1,1,7.4|
1,2,8.5|
2,0,0.43|
2,1,8.1|
2,2,9.7|
];
constraint_x12_x5=[
0,0,3.4|
0,1,5.3|
0,2,0.89|
1,0,0.89|
1,1,5.9|
1,2,0.51|
2,0,2.3|
2,1,3.7|
2,2,9.5|
];
constraint_x12_x7=[
0,0,4.4|
0,1,2.9|
0,2,1.9|
1,0,9.1|
1,1,4.8|
1,2,5.1|
2,0,9.8|
2,1,6.3|
2,2,6.8|
];
constraint_x12_x8=[
0,0,2.3|
0,1,7.3|
0,2,2.3|
1,0,0.75|
1,1,5.5|
1,2,7.4|
2,0,8.1|
2,1,5.5|
2,2,4.6|
];
constraint_x12_x11=[
0,0,2.9|
0,1,9|
0,2,7.5|
1,0,1.7|
1,1,3.5|
1,2,1.5|
2,0,0.41|
2,1,2.4|
2,2,0.2|
];
constraint_x1_y1=[
0,0,0.85|
0,1,4.8|
0,2,9.7|
1,0,7|
1,1,9.9|
1,2,7|
2,0,4.5|
2,1,9.3|
2,2,2.9|
];
constraint_x2_y2=[
0,0,3.6|
0,1,0.79|
0,2,5.3|
1,0,5.8|
1,1,0.18|
1,2,3.7|
2,0,0.25|
2,1,3.9|
2,2,0.55|
];
constraint_x3_y3=[
0,0,9.2|
0,1,5|
0,2,7.4|
1,0,3.8|
1,1,0.59|
1,2,3.6|
2,0,0.96|
2,1,8.7|
2,2,7.6|
];
initial_distribution_y1=[0.44,0.41,0.15];
initial_distribution_y2=[0.37,0.39,0.24];
initial_distribution_y3=[0.25,0.36,0.39];
transition_y1=[
0.1,0.76,0.14|
0.53,0.23,0.24|
0.27,0.34,0.39|
];
transition_y2=[
0.18,0.4,0.42|
0.46,0.067,0.47|
0.36,0.19,0.45|
];
transition_y3=[
0.62,0.14,0.24|
0.3,0.39,0.31|
0.48,0.12,0.41|
];
